Minimize
 obj: 0 X_0_1
Subject To
 out_0:
  + 1 X_0_1 + 1 X_0_2 + 1 X_0_3 + 1 X_0_4 + 1 X_0_5 + 1 X_0_6 + 1 X_0_7 + 1 X_0_8
  + 1 X_0_9 + 1 X_0_10 + 1 X_0_11 + 1 X_0_12 + 1 X_0_13 + 1 X_0_14
  = 1
 in_0:
  + 1 X_1_0 + 1 X_2_0 + 1 X_3_0 + 1 X_4_0 + 1 X_5_0 + 1 X_6_0 + 1 X_7_0 + 1 X_8_0
  + 1 X_9_0 + 1 X_10_0 + 1 X_11_0 + 1 X_12_0 + 1 X_13_0 + 1 X_14_0
  = 1
 out_1:
  + 1 X_1_0 + 1 X_1_2 + 1 X_1_3 + 1 X_1_4 + 1 X_1_5 + 1 X_1_6 + 1 X_1_7 + 1 X_1_8
  + 1 X_1_9 + 1 X_1_10 + 1 X_1_11 + 1 X_1_12 + 1 X_1_13 + 1 X_1_14
  = 1
 in_1:
  + 1 X_0_1 + 1 X_2_1 + 1 X_3_1 + 1 X_4_1 + 1 X_5_1 + 1 X_6_1 + 1 X_7_1 + 1 X_8_1
  + 1 X_9_1 + 1 X_10_1 + 1 X_11_1 + 1 X_12_1 + 1 X_13_1 + 1 X_14_1
  = 1
 out_2:
  + 1 X_2_0 + 1 X_2_1 + 1 X_2_3 + 1 X_2_4 + 1 X_2_5 + 1 X_2_6 + 1 X_2_7 + 1 X_2_8
  + 1 X_2_9 + 1 X_2_10 + 1 X_2_11 + 1 X_2_12 + 1 X_2_13 + 1 X_2_14
  = 1
 in_2:
  + 1 X_0_2 + 1 X_1_2 + 1 X_3_2 + 1 X_4_2 + 1 X_5_2 + 1 X_6_2 + 1 X_7_2 + 1 X_8_2
  + 1 X_9_2 + 1 X_10_2 + 1 X_11_2 + 1 X_12_2 + 1 X_13_2 + 1 X_14_2
  = 1
 out_3:
  + 1 X_3_0 + 1 X_3_1 + 1 X_3_2 + 1 X_3_4 + 1 X_3_5 + 1 X_3_6 + 1 X_3_7 + 1 X_3_8
  + 1 X_3_9 + 1 X_3_10 + 1 X_3_11 + 1 X_3_12 + 1 X_3_13 + 1 X_3_14
  = 1
 in_3:
  + 1 X_0_3 + 1 X_1_3 + 1 X_2_3 + 1 X_4_3 + 1 X_5_3 + 1 X_6_3 + 1 X_7_3 + 1 X_8_3
  + 1 X_9_3 + 1 X_10_3 + 1 X_11_3 + 1 X_12_3 + 1 X_13_3 + 1 X_14_3
  = 1
 out_4:
  + 1 X_4_0 + 1 X_4_1 + 1 X_4_2 + 1 X_4_3 + 1 X_4_5 + 1 X_4_6 + 1 X_4_7 + 1 X_4_8
  + 1 X_4_9 + 1 X_4_10 + 1 X_4_11 + 1 X_4_12 + 1 X_4_13 + 1 X_4_14
  = 1
 in_4:
  + 1 X_0_4 + 1 X_1_4 + 1 X_2_4 + 1 X_3_4 + 1 X_5_4 + 1 X_6_4 + 1 X_7_4 + 1 X_8_4
  + 1 X_9_4 + 1 X_10_4 + 1 X_11_4 + 1 X_12_4 + 1 X_13_4 + 1 X_14_4
  = 1
 out_5:
  + 1 X_5_0 + 1 X_5_1 + 1 X_5_2 + 1 X_5_3 + 1 X_5_4 + 1 X_5_6 + 1 X_5_7 + 1 X_5_8
  + 1 X_5_9 + 1 X_5_10 + 1 X_5_11 + 1 X_5_12 + 1 X_5_13 + 1 X_5_14
  = 1
 in_5:
  + 1 X_0_5 + 1 X_1_5 + 1 X_2_5 + 1 X_3_5 + 1 X_4_5 + 1 X_6_5 + 1 X_7_5 + 1 X_8_5
  + 1 X_9_5 + 1 X_10_5 + 1 X_11_5 + 1 X_12_5 + 1 X_13_5 + 1 X_14_5
  = 1
 out_6:
  + 1 X_6_0 + 1 X_6_1 + 1 X_6_2 + 1 X_6_3 + 1 X_6_4 + 1 X_6_5 + 1 X_6_7 + 1 X_6_8
  + 1 X_6_9 + 1 X_6_10 + 1 X_6_11 + 1 X_6_12 + 1 X_6_13 + 1 X_6_14
  = 1
 in_6:
  + 1 X_0_6 + 1 X_1_6 + 1 X_2_6 + 1 X_3_6 + 1 X_4_6 + 1 X_5_6 + 1 X_7_6 + 1 X_8_6
  + 1 X_9_6 + 1 X_10_6 + 1 X_11_6 + 1 X_12_6 + 1 X_13_6 + 1 X_14_6
  = 1
 out_7:
  + 1 X_7_0 + 1 X_7_1 + 1 X_7_2 + 1 X_7_3 + 1 X_7_4 + 1 X_7_5 + 1 X_7_6 + 1 X_7_8
  + 1 X_7_9 + 1 X_7_10 + 1 X_7_11 + 1 X_7_12 + 1 X_7_13 + 1 X_7_14
  = 1
 in_7:
  + 1 X_0_7 + 1 X_1_7 + 1 X_2_7 + 1 X_3_7 + 1 X_4_7 + 1 X_5_7 + 1 X_6_7 + 1 X_8_7
  + 1 X_9_7 + 1 X_10_7 + 1 X_11_7 + 1 X_12_7 + 1 X_13_7 + 1 X_14_7
  = 1
 out_8:
  + 1 X_8_0 + 1 X_8_1 + 1 X_8_2 + 1 X_8_3 + 1 X_8_4 + 1 X_8_5 + 1 X_8_6 + 1 X_8_7
  + 1 X_8_9 + 1 X_8_10 + 1 X_8_11 + 1 X_8_12 + 1 X_8_13 + 1 X_8_14
  = 1
 in_8:
  + 1 X_0_8 + 1 X_1_8 + 1 X_2_8 + 1 X_3_8 + 1 X_4_8 + 1 X_5_8 + 1 X_6_8 + 1 X_7_8
  + 1 X_9_8 + 1 X_10_8 + 1 X_11_8 + 1 X_12_8 + 1 X_13_8 + 1 X_14_8
  = 1
 out_9:
  + 1 X_9_0 + 1 X_9_1 + 1 X_9_2 + 1 X_9_3 + 1 X_9_4 + 1 X_9_5 + 1 X_9_6 + 1 X_9_7
  + 1 X_9_8 + 1 X_9_10 + 1 X_9_11 + 1 X_9_12 + 1 X_9_13 + 1 X_9_14
  = 1
 in_9:
  + 1 X_0_9 + 1 X_1_9 + 1 X_2_9 + 1 X_3_9 + 1 X_4_9 + 1 X_5_9 + 1 X_6_9 + 1 X_7_9
  + 1 X_8_9 + 1 X_10_9 + 1 X_11_9 + 1 X_12_9 + 1 X_13_9 + 1 X_14_9
  = 1
 out_10:
  + 1 X_10_0 + 1 X_10_1 + 1 X_10_2 + 1 X_10_3 + 1 X_10_4 + 1 X_10_5 + 1 X_10_6 + 1 X_10_7
  + 1 X_10_8 + 1 X_10_9 + 1 X_10_11 + 1 X_10_12 + 1 X_10_13 + 1 X_10_14
  = 1
 in_10:
  + 1 X_0_10 + 1 X_1_10 + 1 X_2_10 + 1 X_3_10 + 1 X_4_10 + 1 X_5_10 + 1 X_6_10 + 1 X_7_10
  + 1 X_8_10 + 1 X_9_10 + 1 X_11_10 + 1 X_12_10 + 1 X_13_10 + 1 X_14_10
  = 1
 out_11:
  + 1 X_11_0 + 1 X_11_1 + 1 X_11_2 + 1 X_11_3 + 1 X_11_4 + 1 X_11_5 + 1 X_11_6 + 1 X_11_7
  + 1 X_11_8 + 1 X_11_9 + 1 X_11_10 + 1 X_11_12 + 1 X_11_13 + 1 X_11_14
  = 1
 in_11:
  + 1 X_0_11 + 1 X_1_11 + 1 X_2_11 + 1 X_3_11 + 1 X_4_11 + 1 X_5_11 + 1 X_6_11 + 1 X_7_11
  + 1 X_8_11 + 1 X_9_11 + 1 X_10_11 + 1 X_12_11 + 1 X_13_11 + 1 X_14_11
  = 1
 out_12:
  + 1 X_12_0 + 1 X_12_1 + 1 X_12_2 + 1 X_12_3 + 1 X_12_4 + 1 X_12_5 + 1 X_12_6 + 1 X_12_7
  + 1 X_12_8 + 1 X_12_9 + 1 X_12_10 + 1 X_12_11 + 1 X_12_13 + 1 X_12_14
  = 1
 in_12:
  + 1 X_0_12 + 1 X_1_12 + 1 X_2_12 + 1 X_3_12 + 1 X_4_12 + 1 X_5_12 + 1 X_6_12 + 1 X_7_12
  + 1 X_8_12 + 1 X_9_12 + 1 X_10_12 + 1 X_11_12 + 1 X_13_12 + 1 X_14_12
  = 1
 out_13:
  + 1 X_13_0 + 1 X_13_1 + 1 X_13_2 + 1 X_13_3 + 1 X_13_4 + 1 X_13_5 + 1 X_13_6 + 1 X_13_7
  + 1 X_13_8 + 1 X_13_9 + 1 X_13_10 + 1 X_13_11 + 1 X_13_12 + 1 X_13_14
  = 1
 in_13:
  + 1 X_0_13 + 1 X_1_13 + 1 X_2_13 + 1 X_3_13 + 1 X_4_13 + 1 X_5_13 + 1 X_6_13 + 1 X_7_13
  + 1 X_8_13 + 1 X_9_13 + 1 X_10_13 + 1 X_11_13 + 1 X_12_13 + 1 X_14_13
  = 1
 out_14:
  + 1 X_14_0 + 1 X_14_1 + 1 X_14_2 + 1 X_14_3 + 1 X_14_4 + 1 X_14_5 + 1 X_14_6 + 1 X_14_7
  + 1 X_14_8 + 1 X_14_9 + 1 X_14_10 + 1 X_14_11 + 1 X_14_12 + 1 X_14_13
  = 1
 in_14:
  + 1 X_0_14 + 1 X_1_14 + 1 X_2_14 + 1 X_3_14 + 1 X_4_14 + 1 X_5_14 + 1 X_6_14 + 1 X_7_14
  + 1 X_8_14 + 1 X_9_14 + 1 X_10_14 + 1 X_11_14 + 1 X_12_14 + 1 X_13_14
  = 1
 mtz_1_2:
  + 1 U1 - 1 U2 + 14 X_1_2
  <= 13
 mtz_1_3:
  + 1 U1 - 1 U3 + 14 X_1_3
  <= 13
 mtz_1_4:
  + 1 U1 - 1 U4 + 14 X_1_4
  <= 13
 mtz_1_5:
  + 1 U1 - 1 U5 + 14 X_1_5
  <= 13
 mtz_1_6:
  + 1 U1 - 1 U6 + 14 X_1_6
  <= 13
 mtz_1_7:
  + 1 U1 - 1 U7 + 14 X_1_7
  <= 13
 mtz_1_8:
  + 1 U1 - 1 U8 + 14 X_1_8
  <= 13
 mtz_1_9:
  + 1 U1 - 1 U9 + 14 X_1_9
  <= 13
 mtz_1_10:
  + 1 U1 - 1 U10 + 14 X_1_10
  <= 13
 mtz_1_11:
  + 1 U1 - 1 U11 + 14 X_1_11
  <= 13
 mtz_1_12:
  + 1 U1 - 1 U12 + 14 X_1_12
  <= 13
 mtz_1_13:
  + 1 U1 - 1 U13 + 14 X_1_13
  <= 13
 mtz_1_14:
  + 1 U1 - 1 U14 + 14 X_1_14
  <= 13
 mtz_2_1:
  + 1 U2 - 1 U1 + 14 X_2_1
  <= 13
 mtz_2_3:
  + 1 U2 - 1 U3 + 14 X_2_3
  <= 13
 mtz_2_4:
  + 1 U2 - 1 U4 + 14 X_2_4
  <= 13
 mtz_2_5:
  + 1 U2 - 1 U5 + 14 X_2_5
  <= 13
 mtz_2_6:
  + 1 U2 - 1 U6 + 14 X_2_6
  <= 13
 mtz_2_7:
  + 1 U2 - 1 U7 + 14 X_2_7
  <= 13
 mtz_2_8:
  + 1 U2 - 1 U8 + 14 X_2_8
  <= 13
 mtz_2_9:
  + 1 U2 - 1 U9 + 14 X_2_9
  <= 13
 mtz_2_10:
  + 1 U2 - 1 U10 + 14 X_2_10
  <= 13
 mtz_2_11:
  + 1 U2 - 1 U11 + 14 X_2_11
  <= 13
 mtz_2_12:
  + 1 U2 - 1 U12 + 14 X_2_12
  <= 13
 mtz_2_13:
  + 1 U2 - 1 U13 + 14 X_2_13
  <= 13
 mtz_2_14:
  + 1 U2 - 1 U14 + 14 X_2_14
  <= 13
 mtz_3_1:
  + 1 U3 - 1 U1 + 14 X_3_1
  <= 13
 mtz_3_2:
  + 1 U3 - 1 U2 + 14 X_3_2
  <= 13
 mtz_3_4:
  + 1 U3 - 1 U4 + 14 X_3_4
  <= 13
 mtz_3_5:
  + 1 U3 - 1 U5 + 14 X_3_5
  <= 13
 mtz_3_6:
  + 1 U3 - 1 U6 + 14 X_3_6
  <= 13
 mtz_3_7:
  + 1 U3 - 1 U7 + 14 X_3_7
  <= 13
 mtz_3_8:
  + 1 U3 - 1 U8 + 14 X_3_8
  <= 13
 mtz_3_9:
  + 1 U3 - 1 U9 + 14 X_3_9
  <= 13
 mtz_3_10:
  + 1 U3 - 1 U10 + 14 X_3_10
  <= 13
 mtz_3_11:
  + 1 U3 - 1 U11 + 14 X_3_11
  <= 13
 mtz_3_12:
  + 1 U3 - 1 U12 + 14 X_3_12
  <= 13
 mtz_3_13:
  + 1 U3 - 1 U13 + 14 X_3_13
  <= 13
 mtz_3_14:
  + 1 U3 - 1 U14 + 14 X_3_14
  <= 13
 mtz_4_1:
  + 1 U4 - 1 U1 + 14 X_4_1
  <= 13
 mtz_4_2:
  + 1 U4 - 1 U2 + 14 X_4_2
  <= 13
 mtz_4_3:
  + 1 U4 - 1 U3 + 14 X_4_3
  <= 13
 mtz_4_5:
  + 1 U4 - 1 U5 + 14 X_4_5
  <= 13
 mtz_4_6:
  + 1 U4 - 1 U6 + 14 X_4_6
  <= 13
 mtz_4_7:
  + 1 U4 - 1 U7 + 14 X_4_7
  <= 13
 mtz_4_8:
  + 1 U4 - 1 U8 + 14 X_4_8
  <= 13
 mtz_4_9:
  + 1 U4 - 1 U9 + 14 X_4_9
  <= 13
 mtz_4_10:
  + 1 U4 - 1 U10 + 14 X_4_10
  <= 13
 mtz_4_11:
  + 1 U4 - 1 U11 + 14 X_4_11
  <= 13
 mtz_4_12:
  + 1 U4 - 1 U12 + 14 X_4_12
  <= 13
 mtz_4_13:
  + 1 U4 - 1 U13 + 14 X_4_13
  <= 13
 mtz_4_14:
  + 1 U4 - 1 U14 + 14 X_4_14
  <= 13
 mtz_5_1:
  + 1 U5 - 1 U1 + 14 X_5_1
  <= 13
 mtz_5_2:
  + 1 U5 - 1 U2 + 14 X_5_2
  <= 13
 mtz_5_3:
  + 1 U5 - 1 U3 + 14 X_5_3
  <= 13
 mtz_5_4:
  + 1 U5 - 1 U4 + 14 X_5_4
  <= 13
 mtz_5_6:
  + 1 U5 - 1 U6 + 14 X_5_6
  <= 13
 mtz_5_7:
  + 1 U5 - 1 U7 + 14 X_5_7
  <= 13
 mtz_5_8:
  + 1 U5 - 1 U8 + 14 X_5_8
  <= 13
 mtz_5_9:
  + 1 U5 - 1 U9 + 14 X_5_9
  <= 13
 mtz_5_10:
  + 1 U5 - 1 U10 + 14 X_5_10
  <= 13
 mtz_5_11:
  + 1 U5 - 1 U11 + 14 X_5_11
  <= 13
 mtz_5_12:
  + 1 U5 - 1 U12 + 14 X_5_12
  <= 13
 mtz_5_13:
  + 1 U5 - 1 U13 + 14 X_5_13
  <= 13
 mtz_5_14:
  + 1 U5 - 1 U14 + 14 X_5_14
  <= 13
 mtz_6_1:
  + 1 U6 - 1 U1 + 14 X_6_1
  <= 13
 mtz_6_2:
  + 1 U6 - 1 U2 + 14 X_6_2
  <= 13
 mtz_6_3:
  + 1 U6 - 1 U3 + 14 X_6_3
  <= 13
 mtz_6_4:
  + 1 U6 - 1 U4 + 14 X_6_4
  <= 13
 mtz_6_5:
  + 1 U6 - 1 U5 + 14 X_6_5
  <= 13
 mtz_6_7:
  + 1 U6 - 1 U7 + 14 X_6_7
  <= 13
 mtz_6_8:
  + 1 U6 - 1 U8 + 14 X_6_8
  <= 13
 mtz_6_9:
  + 1 U6 - 1 U9 + 14 X_6_9
  <= 13
 mtz_6_10:
  + 1 U6 - 1 U10 + 14 X_6_10
  <= 13
 mtz_6_11:
  + 1 U6 - 1 U11 + 14 X_6_11
  <= 13
 mtz_6_12:
  + 1 U6 - 1 U12 + 14 X_6_12
  <= 13
 mtz_6_13:
  + 1 U6 - 1 U13 + 14 X_6_13
  <= 13
 mtz_6_14:
  + 1 U6 - 1 U14 + 14 X_6_14
  <= 13
 mtz_7_1:
  + 1 U7 - 1 U1 + 14 X_7_1
  <= 13
 mtz_7_2:
  + 1 U7 - 1 U2 + 14 X_7_2
  <= 13
 mtz_7_3:
  + 1 U7 - 1 U3 + 14 X_7_3
  <= 13
 mtz_7_4:
  + 1 U7 - 1 U4 + 14 X_7_4
  <= 13
 mtz_7_5:
  + 1 U7 - 1 U5 + 14 X_7_5
  <= 13
 mtz_7_6:
  + 1 U7 - 1 U6 + 14 X_7_6
  <= 13
 mtz_7_8:
  + 1 U7 - 1 U8 + 14 X_7_8
  <= 13
 mtz_7_9:
  + 1 U7 - 1 U9 + 14 X_7_9
  <= 13
 mtz_7_10:
  + 1 U7 - 1 U10 + 14 X_7_10
  <= 13
 mtz_7_11:
  + 1 U7 - 1 U11 + 14 X_7_11
  <= 13
 mtz_7_12:
  + 1 U7 - 1 U12 + 14 X_7_12
  <= 13
 mtz_7_13:
  + 1 U7 - 1 U13 + 14 X_7_13
  <= 13
 mtz_7_14:
  + 1 U7 - 1 U14 + 14 X_7_14
  <= 13
 mtz_8_1:
  + 1 U8 - 1 U1 + 14 X_8_1
  <= 13
 mtz_8_2:
  + 1 U8 - 1 U2 + 14 X_8_2
  <= 13
 mtz_8_3:
  + 1 U8 - 1 U3 + 14 X_8_3
  <= 13
 mtz_8_4:
  + 1 U8 - 1 U4 + 14 X_8_4
  <= 13
 mtz_8_5:
  + 1 U8 - 1 U5 + 14 X_8_5
  <= 13
 mtz_8_6:
  + 1 U8 - 1 U6 + 14 X_8_6
  <= 13
 mtz_8_7:
  + 1 U8 - 1 U7 + 14 X_8_7
  <= 13
 mtz_8_9:
  + 1 U8 - 1 U9 + 14 X_8_9
  <= 13
 mtz_8_10:
  + 1 U8 - 1 U10 + 14 X_8_10
  <= 13
 mtz_8_11:
  + 1 U8 - 1 U11 + 14 X_8_11
  <= 13
 mtz_8_12:
  + 1 U8 - 1 U12 + 14 X_8_12
  <= 13
 mtz_8_13:
  + 1 U8 - 1 U13 + 14 X_8_13
  <= 13
 mtz_8_14:
  + 1 U8 - 1 U14 + 14 X_8_14
  <= 13
 mtz_9_1:
  + 1 U9 - 1 U1 + 14 X_9_1
  <= 13
 mtz_9_2:
  + 1 U9 - 1 U2 + 14 X_9_2
  <= 13
 mtz_9_3:
  + 1 U9 - 1 U3 + 14 X_9_3
  <= 13
 mtz_9_4:
  + 1 U9 - 1 U4 + 14 X_9_4
  <= 13
 mtz_9_5:
  + 1 U9 - 1 U5 + 14 X_9_5
  <= 13
 mtz_9_6:
  + 1 U9 - 1 U6 + 14 X_9_6
  <= 13
 mtz_9_7:
  + 1 U9 - 1 U7 + 14 X_9_7
  <= 13
 mtz_9_8:
  + 1 U9 - 1 U8 + 14 X_9_8
  <= 13
 mtz_9_10:
  + 1 U9 - 1 U10 + 14 X_9_10
  <= 13
 mtz_9_11:
  + 1 U9 - 1 U11 + 14 X_9_11
  <= 13
 mtz_9_12:
  + 1 U9 - 1 U12 + 14 X_9_12
  <= 13
 mtz_9_13:
  + 1 U9 - 1 U13 + 14 X_9_13
  <= 13
 mtz_9_14:
  + 1 U9 - 1 U14 + 14 X_9_14
  <= 13
 mtz_10_1:
  + 1 U10 - 1 U1 + 14 X_10_1
  <= 13
 mtz_10_2:
  + 1 U10 - 1 U2 + 14 X_10_2
  <= 13
 mtz_10_3:
  + 1 U10 - 1 U3 + 14 X_10_3
  <= 13
 mtz_10_4:
  + 1 U10 - 1 U4 + 14 X_10_4
  <= 13
 mtz_10_5:
  + 1 U10 - 1 U5 + 14 X_10_5
  <= 13
 mtz_10_6:
  + 1 U10 - 1 U6 + 14 X_10_6
  <= 13
 mtz_10_7:
  + 1 U10 - 1 U7 + 14 X_10_7
  <= 13
 mtz_10_8:
  + 1 U10 - 1 U8 + 14 X_10_8
  <= 13
 mtz_10_9:
  + 1 U10 - 1 U9 + 14 X_10_9
  <= 13
 mtz_10_11:
  + 1 U10 - 1 U11 + 14 X_10_11
  <= 13
 mtz_10_12:
  + 1 U10 - 1 U12 + 14 X_10_12
  <= 13
 mtz_10_13:
  + 1 U10 - 1 U13 + 14 X_10_13
  <= 13
 mtz_10_14:
  + 1 U10 - 1 U14 + 14 X_10_14
  <= 13
 mtz_11_1:
  + 1 U11 - 1 U1 + 14 X_11_1
  <= 13
 mtz_11_2:
  + 1 U11 - 1 U2 + 14 X_11_2
  <= 13
 mtz_11_3:
  + 1 U11 - 1 U3 + 14 X_11_3
  <= 13
 mtz_11_4:
  + 1 U11 - 1 U4 + 14 X_11_4
  <= 13
 mtz_11_5:
  + 1 U11 - 1 U5 + 14 X_11_5
  <= 13
 mtz_11_6:
  + 1 U11 - 1 U6 + 14 X_11_6
  <= 13
 mtz_11_7:
  + 1 U11 - 1 U7 + 14 X_11_7
  <= 13
 mtz_11_8:
  + 1 U11 - 1 U8 + 14 X_11_8
  <= 13
 mtz_11_9:
  + 1 U11 - 1 U9 + 14 X_11_9
  <= 13
 mtz_11_10:
  + 1 U11 - 1 U10 + 14 X_11_10
  <= 13
 mtz_11_12:
  + 1 U11 - 1 U12 + 14 X_11_12
  <= 13
 mtz_11_13:
  + 1 U11 - 1 U13 + 14 X_11_13
  <= 13
 mtz_11_14:
  + 1 U11 - 1 U14 + 14 X_11_14
  <= 13
 mtz_12_1:
  + 1 U12 - 1 U1 + 14 X_12_1
  <= 13
 mtz_12_2:
  + 1 U12 - 1 U2 + 14 X_12_2
  <= 13
 mtz_12_3:
  + 1 U12 - 1 U3 + 14 X_12_3
  <= 13
 mtz_12_4:
  + 1 U12 - 1 U4 + 14 X_12_4
  <= 13
 mtz_12_5:
  + 1 U12 - 1 U5 + 14 X_12_5
  <= 13
 mtz_12_6:
  + 1 U12 - 1 U6 + 14 X_12_6
  <= 13
 mtz_12_7:
  + 1 U12 - 1 U7 + 14 X_12_7
  <= 13
 mtz_12_8:
  + 1 U12 - 1 U8 + 14 X_12_8
  <= 13
 mtz_12_9:
  + 1 U12 - 1 U9 + 14 X_12_9
  <= 13
 mtz_12_10:
  + 1 U12 - 1 U10 + 14 X_12_10
  <= 13
 mtz_12_11:
  + 1 U12 - 1 U11 + 14 X_12_11
  <= 13
 mtz_12_13:
  + 1 U12 - 1 U13 + 14 X_12_13
  <= 13
 mtz_12_14:
  + 1 U12 - 1 U14 + 14 X_12_14
  <= 13
 mtz_13_1:
  + 1 U13 - 1 U1 + 14 X_13_1
  <= 13
 mtz_13_2:
  + 1 U13 - 1 U2 + 14 X_13_2
  <= 13
 mtz_13_3:
  + 1 U13 - 1 U3 + 14 X_13_3
  <= 13
 mtz_13_4:
  + 1 U13 - 1 U4 + 14 X_13_4
  <= 13
 mtz_13_5:
  + 1 U13 - 1 U5 + 14 X_13_5
  <= 13
 mtz_13_6:
  + 1 U13 - 1 U6 + 14 X_13_6
  <= 13
 mtz_13_7:
  + 1 U13 - 1 U7 + 14 X_13_7
  <= 13
 mtz_13_8:
  + 1 U13 - 1 U8 + 14 X_13_8
  <= 13
 mtz_13_9:
  + 1 U13 - 1 U9 + 14 X_13_9
  <= 13
 mtz_13_10:
  + 1 U13 - 1 U10 + 14 X_13_10
  <= 13
 mtz_13_11:
  + 1 U13 - 1 U11 + 14 X_13_11
  <= 13
 mtz_13_12:
  + 1 U13 - 1 U12 + 14 X_13_12
  <= 13
 mtz_13_14:
  + 1 U13 - 1 U14 + 14 X_13_14
  <= 13
 mtz_14_1:
  + 1 U14 - 1 U1 + 14 X_14_1
  <= 13
 mtz_14_2:
  + 1 U14 - 1 U2 + 14 X_14_2
  <= 13
 mtz_14_3:
  + 1 U14 - 1 U3 + 14 X_14_3
  <= 13
 mtz_14_4:
  + 1 U14 - 1 U4 + 14 X_14_4
  <= 13
 mtz_14_5:
  + 1 U14 - 1 U5 + 14 X_14_5
  <= 13
 mtz_14_6:
  + 1 U14 - 1 U6 + 14 X_14_6
  <= 13
 mtz_14_7:
  + 1 U14 - 1 U7 + 14 X_14_7
  <= 13
 mtz_14_8:
  + 1 U14 - 1 U8 + 14 X_14_8
  <= 13
 mtz_14_9:
  + 1 U14 - 1 U9 + 14 X_14_9
  <= 13
 mtz_14_10:
  + 1 U14 - 1 U10 + 14 X_14_10
  <= 13
 mtz_14_11:
  + 1 U14 - 1 U11 + 14 X_14_11
  <= 13
 mtz_14_12:
  + 1 U14 - 1 U12 + 14 X_14_12
  <= 13
 mtz_14_13:
  + 1 U14 - 1 U13 + 14 X_14_13
  <= 13
 obj1:
  + 511 X_0_1 + 378 X_0_2 + 759 X_0_3 + 684 X_0_4 + 567 X_0_5 + 546 X_0_6 + 632 X_0_7 + 304 X_0_8
  + 1188 X_0_9 + 759 X_0_10 + 82 X_0_11 + 839 X_0_12 + 556 X_0_13 + 661 X_0_14 + 511 X_1_0 + 525 X_1_2
  + 649 X_1_3 + 461 X_1_4 + 599 X_1_5 + 37 X_1_6 + 199 X_1_7 + 275 X_1_8 + 779 X_1_9 + 326 X_1_10
  + 483 X_1_11 + 706 X_1_12 + 537 X_1_13 + 155 X_1_14 + 378 X_2_0 + 525 X_2_1 + 400 X_2_3 + 393 X_2_4
  + 190 X_2_5 + 559 X_2_6 + 718 X_2_7 + 514 X_2_8 + 942 X_2_9 + 597 X_2_10 + 296 X_2_11 + 480 X_2_12
  + 196 X_2_13 + 668 X_2_14 + 759 X_3_0 + 649 X_3_1 + 400 X_3_2 + 204 X_3_4 + 221 X_3_5 + 667 X_3_6
  + 840 X_3_7 + 789 X_3_8 + 640 X_3_9 + 493 X_3_10 + 678 X_3_11 + 80 X_3_12 + 205 X_3_13 + 731 X_3_14
  + 684 X_4_0 + 461 X_4_1 + 393 X_4_2 + 204 X_4_3 + 292 X_4_5 + 474 X_4_6 + 644 X_4_7 + 641 X_4_8
  + 549 X_4_9 + 294 X_4_10 + 609 X_4_11 + 247 X_4_12 + 229 X_4_13 + 529 X_4_14 + 567 X_5_0 + 599 X_5_1
  + 190 X_5_2 + 221 X_5_3 + 292 X_5_4 + 626 X_5_6 + 798 X_5_7 + 661 X_5_8 + 825 X_5_9 + 562 X_5_10
  + 485 X_5_11 + 298 X_5_12 + 69 X_5_13 + 718 X_5_14 + 546 X_6_0 + 37 X_6_1 + 559 X_6_2 + 667 X_6_3
  + 474 X_6_4 + 626 X_6_5 + 174 X_6_7 + 301 X_6_8 + 764 X_6_9 + 315 X_6_10 + 520 X_6_11 + 721 X_6_12
  + 563 X_6_13 + 117 X_6_14 + 632 X_7_0 + 199 X_7_1 + 718 X_7_2 + 840 X_7_3 + 644 X_7_4 + 798 X_7_5
  + 174 X_7_6 + 338 X_7_8 + 862 X_7_9 + 443 X_7_10 + 626 X_7_11 + 892 X_7_12 + 736 X_7_13 + 140 X_7_14
  + 304 X_8_0 + 275 X_8_1 + 514 X_8_2 + 789 X_8_3 + 641 X_8_4 + 661 X_8_5 + 301 X_8_6 + 338 X_8_7
  + 1045 X_8_9 + 591 X_8_10 + 318 X_8_11 + 860 X_8_12 + 618 X_8_13 + 398 X_8_14 + 1188 X_9_0 + 779 X_9_1
  + 942 X_9_2 + 640 X_9_3 + 549 X_9_4 + 825 X_9_5 + 764 X_9_6 + 862 X_9_7 + 1045 X_9_8 + 454 X_9_10
  + 1124 X_9_11 + 601 X_9_12 + 772 X_9_13 + 724 X_9_14 + 759 X_10_0 + 326 X_10_1 + 597 X_10_2 + 493 X_10_3
  + 294 X_10_4 + 562 X_10_5 + 315 X_10_6 + 443 X_10_7 + 591 X_10_8 + 454 X_10_9 + 704 X_10_11 + 517 X_10_12
  + 493 X_10_13 + 305 X_10_14 + 82 X_11_0 + 483 X_11_1 + 296 X_11_2 + 678 X_11_3 + 609 X_11_4 + 485 X_11_5
  + 520 X_11_6 + 626 X_11_7 + 318 X_11_8 + 1124 X_11_9 + 704 X_11_10 + 758 X_11_12 + 474 X_11_13 + 637 X_11_14
  + 839 X_12_0 + 706 X_12_1 + 480 X_12_2 + 80 X_12_3 + 247 X_12_4 + 298 X_12_5 + 721 X_12_6 + 892 X_12_7
  + 860 X_12_8 + 601 X_12_9 + 517 X_12_10 + 758 X_12_11 + 286 X_12_13 + 776 X_12_14 + 556 X_13_0 + 537 X_13_1
  + 196 X_13_2 + 205 X_13_3 + 229 X_13_4 + 69 X_13_5 + 563 X_13_6 + 736 X_13_7 + 618 X_13_8 + 772 X_13_9
  + 493 X_13_10 + 474 X_13_11 + 286 X_13_12 + 652 X_13_14 + 661 X_14_0 + 155 X_14_1 + 668 X_14_2 + 731 X_14_3
  + 529 X_14_4 + 718 X_14_5 + 117 X_14_6 + 140 X_14_7 + 398 X_14_8 + 724 X_14_9 + 305 X_14_10 + 637 X_14_11
  + 776 X_14_12 + 652 X_14_13
  <= 1
 obj2:
  + 679 X_0_1 + 434 X_0_2 + 602 X_0_3 + 374 X_0_4 + 298 X_0_5 + 629 X_0_6 + 457 X_0_7 + 394 X_0_8
  + 143 X_0_9 + 327 X_0_10 + 441 X_0_11 + 689 X_0_12 + 625 X_0_13 + 597 X_0_14 + 679 X_1_0 + 609 X_1_2
  + 683 X_1_3 + 851 X_1_4 + 435 X_1_5 + 881 X_1_6 + 438 X_1_7 + 917 X_1_8 + 799 X_1_9 + 996 X_1_10
  + 755 X_1_11 + 890 X_1_12 + 457 X_1_13 + 124 X_1_14 + 434 X_2_0 + 609 X_2_1 + 925 X_2_3 + 296 X_2_4
  + 522 X_2_5 + 1019 X_2_6 + 172 X_2_7 + 370 X_2_8 + 567 X_2_9 + 588 X_2_10 + 152 X_2_11 + 1068 X_2_12
  + 834 X_2_13 + 607 X_2_14 + 602 X_3_0 + 683 X_3_1 + 925 X_3_2 + 971 X_3_4 + 405 X_3_5 + 220 X_3_6
  + 837 X_3_7 + 997 X_3_8 + 592 X_3_9 + 862 X_3_10 + 998 X_3_11 + 209 X_3_12 + 249 X_3_13 + 560 X_3_14
  + 374 X_4_0 + 851 X_4_1 + 296 X_4_2 + 971 X_4_3 + 613 X_4_5 + 1001 X_4_6 + 448 X_4_7 + 74 X_4_8
  + 450 X_4_9 + 343 X_4_10 + 170 X_4_11 + 1063 X_4_12 + 955 X_4_13 + 816 X_4_14 + 298 X_5_0 + 435 X_5_1
  + 522 X_5_2 + 405 X_5_3 + 613 X_5_4 + 532 X_5_6 + 436 X_5_7 + 655 X_5_8 + 384 X_5_9 + 624 X_5_10
  + 607 X_5_11 + 567 X_5_12 + 342 X_5_13 + 328 X_5_14 + 629 X_6_0 + 881 X_6_1 + 1019 X_6_2 + 220 X_6_3
  + 1001 X_6_4 + 532 X_6_5 + 963 X_6_7 + 1010 X_6_8 + 568 X_6_9 + 817 X_6_10 + 1063 X_6_11 + 72 X_6_12
  + 468 X_6_13 + 757 X_6_14 + 457 X_7_0 + 438 X_7_1 + 172 X_7_2 + 837 X_7_3 + 448 X_7_4 + 436 X_7_5
  + 963 X_7_6 + 521 X_7_8 + 601 X_7_9 + 690 X_7_10 + 323 X_7_11 + 1003 X_7_12 + 709 X_7_13 + 447 X_7_14
  + 394 X_8_0 + 917 X_8_1 + 370 X_8_2 + 997 X_8_3 + 74 X_8_4 + 655 X_8_5 + 1010 X_8_6 + 521 X_8_7
  + 447 X_8_9 + 296 X_8_10 + 240 X_8_11 + 1075 X_8_12 + 997 X_8_13 + 877 X_8_14 + 143 X_9_0 + 799 X_9_1
  + 567 X_9_2 + 592 X_9_3 + 450 X_9_4 + 384 X_9_5 + 568 X_9_6 + 601 X_9_7 + 447 X_9_8 + 271 X_9_10
  + 552 X_9_11 + 635 X_9_12 + 671 X_9_13 + 706 X_9_14 + 327 X_10_0 + 996 X_10_1 + 588 X_10_2 + 862 X_10_3
  + 343 X_10_4 + 624 X_10_5 + 817 X_10_6 + 690 X_10_7 + 296 X_10_8 + 271 X_10_9 + 503 X_10_11 + 888 X_10_12
  + 936 X_10_13 + 922 X_10_14 + 441 X_11_0 + 755 X_11_1 + 152 X_11_2 + 998 X_11_3 + 170 X_11_4 + 607 X_11_5
  + 1063 X_11_6 + 323 X_11_7 + 240 X_11_8 + 552 X_11_9 + 503 X_11_10 + 1119 X_11_12 + 939 X_11_13 + 743 X_11_14
  + 689 X_12_0 + 890 X_12_1 + 1068 X_12_2 + 209 X_12_3 + 1063 X_12_4 + 567 X_12_5 + 72 X_12_6 + 1003 X_12_7
  + 1075 X_12_8 + 635 X_12_9 + 888 X_12_10 + 1119 X_12_11 + 456 X_12_13 + 766 X_12_14 + 625 X_13_0 + 457 X_13_1
  + 834 X_13_2 + 249 X_13_3 + 955 X_13_4 + 342 X_13_5 + 468 X_13_6 + 709 X_13_7 + 997 X_13_8 + 671 X_13_9
  + 936 X_13_10 + 939 X_13_11 + 456 X_13_12 + 341 X_13_14 + 597 X_14_0 + 124 X_14_1 + 607 X_14_2 + 560 X_14_3
  + 816 X_14_4 + 328 X_14_5 + 757 X_14_6 + 447 X_14_7 + 877 X_14_8 + 706 X_14_9 + 922 X_14_10 + 743 X_14_11
  + 766 X_14_12 + 341 X_14_13
  <= 2
 obj3:
  + 242 X_0_1 + 933 X_0_2 + 462 X_0_3 + 87 X_0_4 + 686 X_0_5 + 188 X_0_6 + 585 X_0_7 + 471 X_0_8
  + 780 X_0_9 + 345 X_0_10 + 546 X_0_11 + 628 X_0_12 + 610 X_0_13 + 589 X_0_14 + 242 X_1_0 + 847 X_1_2
  + 455 X_1_3 + 162 X_1_4 + 508 X_1_5 + 404 X_1_6 + 524 X_1_7 + 329 X_1_8 + 670 X_1_9 + 216 X_1_10
  + 303 X_1_11 + 421 X_1_12 + 417 X_1_13 + 353 X_1_14 + 933 X_2_0 + 847 X_2_1 + 487 X_2_3 + 923 X_2_4
  + 441 X_2_5 + 910 X_2_6 + 348 X_2_7 + 521 X_2_8 + 187 X_2_9 + 632 X_2_10 + 813 X_2_11 + 572 X_2_12
  + 531 X_2_13 + 734 X_2_14 + 462 X_3_0 + 455 X_3_1 + 487 X_3_2 + 473 X_3_4 + 424 X_3_5 + 423 X_3_6
  + 150 X_3_7 + 257 X_3_8 + 369 X_3_9 + 265 X_3_10 + 590 X_3_11 + 468 X_3_12 + 420 X_3_13 + 558 X_3_14
  + 87 X_4_0 + 162 X_4_1 + 923 X_4_2 + 473 X_4_3 + 639 X_4_5 + 271 X_4_6 + 580 X_4_7 + 434 X_4_8
  + 759 X_4_9 + 306 X_4_10 + 465 X_4_11 + 569 X_4_12 + 556 X_4_13 + 514 X_4_14 + 686 X_5_0 + 508 X_5_1
  + 441 X_5_2 + 424 X_5_3 + 639 X_5_4 + 753 X_5_6 + 321 X_5_7 + 221 X_5_8 + 261 X_5_9 + 341 X_5_10
  + 381 X_5_11 + 133 X_5_12 + 101 X_5_13 + 296 X_5_14 + 188 X_6_0 + 404 X_6_1 + 910 X_6_2 + 423 X_6_3
  + 271 X_6_4 + 753 X_6_5 + 569 X_6_7 + 532 X_6_8 + 784 X_6_9 + 423 X_6_10 + 696 X_6_11 + 726 X_6_12
  + 697 X_6_13 + 723 X_6_14 + 585 X_7_0 + 524 X_7_1 + 348 X_7_2 + 150 X_7_3 + 580 X_7_4 + 321 X_7_5
  + 569 X_7_6 + 234 X_7_8 + 219 X_7_9 + 310 X_7_10 + 580 X_7_11 + 401 X_7_12 + 349 X_7_13 + 527 X_7_14
  + 471 X_8_0 + 329 X_8_1 + 521 X_8_2 + 257 X_8_3 + 434 X_8_4 + 221 X_8_5 + 532 X_8_6 + 234 X_8_7
  + 340 X_8_9 + 127 X_8_10 + 348 X_8_11 + 218 X_8_12 + 175 X_8_13 + 304 X_8_14 + 780 X_9_0 + 670 X_9_1
  + 187 X_9_2 + 369 X_9_3 + 759 X_9_4 + 261 X_9_5 + 784 X_9_6 + 219 X_9_7 + 340 X_9_8 + 459 X_9_10
  + 626 X_9_11 + 390 X_9_12 + 345 X_9_13 + 549 X_9_14 + 345 X_10_0 + 216 X_10_1 + 632 X_10_2 + 265 X_10_3
  + 306 X_10_4 + 341 X_10_5 + 423 X_10_6 + 310 X_10_7 + 127 X_10_8 + 459 X_10_9 + 337 X_10_11 + 302 X_10_12
  + 274 X_10_13 + 328 X_10_14 + 546 X_11_0 + 303 X_11_1 + 813 X_11_2 + 590 X_11_3 + 465 X_11_4 + 381 X_11_5
  + 696 X_11_6 + 580 X_11_7 + 348 X_11_8 + 626 X_11_9 + 337 X_11_10 + 249 X_11_12 + 283 X_11_13 + 92 X_11_14
  + 628 X_12_0 + 421 X_12_1 + 572 X_12_2 + 468 X_12_3 + 569 X_12_4 + 133 X_12_5 + 726 X_12_6 + 401 X_12_7
  + 218 X_12_8 + 390 X_12_9 + 302 X_12_10 + 249 X_12_11 + 51 X_12_13 + 162 X_12_14 + 610 X_13_0 + 417 X_13_1
  + 531 X_13_2 + 420 X_13_3 + 556 X_13_4 + 101 X_13_5 + 697 X_13_6 + 349 X_13_7 + 175 X_13_8 + 345 X_13_9
  + 274 X_13_10 + 283 X_13_11 + 51 X_13_12 + 203 X_13_14 + 589 X_14_0 + 353 X_14_1 + 734 X_14_2 + 558 X_14_3
  + 514 X_14_4 + 296 X_14_5 + 723 X_14_6 + 527 X_14_7 + 304 X_14_8 + 549 X_14_9 + 328 X_14_10 + 92 X_14_11
  + 162 X_14_12 + 203 X_14_13
  <= 3
Bounds
 1 <= U1 <= 14
 1 <= U2 <= 14
 1 <= U3 <= 14
 1 <= U4 <= 14
 1 <= U5 <= 14
 1 <= U6 <= 14
 1 <= U7 <= 14
 1 <= U8 <= 14
 1 <= U9 <= 14
 1 <= U10 <= 14
 1 <= U11 <= 14
 1 <= U12 <= 14
 1 <= U13 <= 14
 1 <= U14 <= 14
Binary
 X_0_1
 X_0_2
 X_0_3
 X_0_4
 X_0_5
 X_0_6
 X_0_7
 X_0_8
 X_0_9
 X_0_10
 X_0_11
 X_0_12
 X_0_13
 X_0_14
 X_1_0
 X_1_2
 X_1_3
 X_1_4
 X_1_5
 X_1_6
 X_1_7
 X_1_8
 X_1_9
 X_1_10
 X_1_11
 X_1_12
 X_1_13
 X_1_14
 X_2_0
 X_2_1
 X_2_3
 X_2_4
 X_2_5
 X_2_6
 X_2_7
 X_2_8
 X_2_9
 X_2_10
 X_2_11
 X_2_12
 X_2_13
 X_2_14
 X_3_0
 X_3_1
 X_3_2
 X_3_4
 X_3_5
 X_3_6
 X_3_7
 X_3_8
 X_3_9
 X_3_10
 X_3_11
 X_3_12
 X_3_13
 X_3_14
 X_4_0
 X_4_1
 X_4_2
 X_4_3
 X_4_5
 X_4_6
 X_4_7
 X_4_8
 X_4_9
 X_4_10
 X_4_11
 X_4_12
 X_4_13
 X_4_14
 X_5_0
 X_5_1
 X_5_2
 X_5_3
 X_5_4
 X_5_6
 X_5_7
 X_5_8
 X_5_9
 X_5_10
 X_5_11
 X_5_12
 X_5_13
 X_5_14
 X_6_0
 X_6_1
 X_6_2
 X_6_3
 X_6_4
 X_6_5
 X_6_7
 X_6_8
 X_6_9
 X_6_10
 X_6_11
 X_6_12
 X_6_13
 X_6_14
 X_7_0
 X_7_1
 X_7_2
 X_7_3
 X_7_4
 X_7_5
 X_7_6
 X_7_8
 X_7_9
 X_7_10
 X_7_11
 X_7_12
 X_7_13
 X_7_14
 X_8_0
 X_8_1
 X_8_2
 X_8_3
 X_8_4
 X_8_5
 X_8_6
 X_8_7
 X_8_9
 X_8_10
 X_8_11
 X_8_12
 X_8_13
 X_8_14
 X_9_0
 X_9_1
 X_9_2
 X_9_3
 X_9_4
 X_9_5
 X_9_6
 X_9_7
 X_9_8
 X_9_10
 X_9_11
 X_9_12
 X_9_13
 X_9_14
 X_10_0
 X_10_1
 X_10_2
 X_10_3
 X_10_4
 X_10_5
 X_10_6
 X_10_7
 X_10_8
 X_10_9
 X_10_11
 X_10_12
 X_10_13
 X_10_14
 X_11_0
 X_11_1
 X_11_2
 X_11_3
 X_11_4
 X_11_5
 X_11_6
 X_11_7
 X_11_8
 X_11_9
 X_11_10
 X_11_12
 X_11_13
 X_11_14
 X_12_0
 X_12_1
 X_12_2
 X_12_3
 X_12_4
 X_12_5
 X_12_6
 X_12_7
 X_12_8
 X_12_9
 X_12_10
 X_12_11
 X_12_13
 X_12_14
 X_13_0
 X_13_1
 X_13_2
 X_13_3
 X_13_4
 X_13_5
 X_13_6
 X_13_7
 X_13_8
 X_13_9
 X_13_10
 X_13_11
 X_13_12
 X_13_14
 X_14_0
 X_14_1
 X_14_2
 X_14_3
 X_14_4
 X_14_5
 X_14_6
 X_14_7
 X_14_8
 X_14_9
 X_14_10
 X_14_11
 X_14_12
 X_14_13
End
